% demand
num_movements = 30;
loading_factor = [1450, 1750, 1650, 1750, 1750, 1000, 1850, 1350, 900, 1950, 1800, 2000, 2000, 1450, 1750, 850, 850, 1000, 1800, 1350, 900, 1100, 1000, 1500, 1500, 1200, 1950, 1400, 1100, 1350];
pickup_time = [0, 1, 1, 1, 3, 3, 3, 3, 4, 4, 4, 5, 5, 6, 6, 6, 7, 7, 8, 9, 9, 9, 10, 11, 11, 11, 12, 12, 12, 12];
delivery_time = [2, 2, 2, 2, 4, 5, 4, 5, 5, 5, 9, 6, 6, 8, 7, 10, 8, 10, 10, 10, 10, 10, 12, 12, 12, 13, 13, 13, 13, 13];

% transporter definition
total_capacity = 7000;
num_decks = 3;
capacity = [3000, 1000, 3000];

% ways out of decks
num_ways_out = 1;
paths_out = array3d(decks, ways_out, decks, [
% ways out of deck d1
2, 3, 0, 

% ways out of deck d2
3, 0, 0, 

% ways out of deck d3
0, 0, 0,	

]);

